************************************************************************
file with basedata            : cm150_.bas
initial value random generator: 65359373
************************************************************************
projects                      :  1
jobs (incl. supersource/sink ):  18
horizon                       :  100
RESOURCES
  - renewable                 :  2   R
  - nonrenewable              :  2   N
  - doubly constrained        :  0   D
************************************************************************
PROJECT INFORMATION:
pronr.  #jobs rel.date duedate tardcost  MPM-Time
    1     16      0       35        1       35
************************************************************************
PRECEDENCE RELATIONS:
jobnr.    #modes  #successors   successors
   1        1          3           2   3   4
   2        1          3           6   8  11
   3        1          3           7  11  15
   4        1          3           5   6  12
   5        1          3           7   9  14
   6        1          2          15  17
   7        1          3           8  10  13
   8        1          1          16
   9        1          1          11
  10        1          1          16
  11        1          1          13
  12        1          2          13  14
  13        1          2          16  17
  14        1          2          15  17
  15        1          1          18
  16        1          1          18
  17        1          1          18
  18        1          0        
************************************************************************
REQUESTS/DURATIONS:
jobnr. mode duration  R 1  R 2  N 1  N 2
------------------------------------------------------------------------
  1      1     0       0    0    0    0
  2      1     3       0    9    9    6
  3      1     7       1    0    5    6
  4      1     5       2    0    4    4
  5      1     5       0    3    8    2
  6      1     6       1    0    6    1
  7      1     7       6    0    9    5
  8      1     8       0    5    7    9
  9      1     9       6    0    2    9
 10      1    10       0    9    6    2
 11      1     6       0    6    9   10
 12      1     4       7    0    8    2
 13      1     7       6    0    6    6
 14      1    10      10    0    6   10
 15      1     9       0    7    2    4
 16      1     3       0    6    6    4
 17      1     1       6    0    4    4
 18      1     0       0    0    0    0
************************************************************************
RESOURCEAVAILABILITIES:
  R 1  R 2  N 1  N 2
   17   18   97   84
************************************************************************
